126 5
10 10 10 10 10 

0 0 0 0 0 0 2 2 14 
0 0 0 0 0 0 7 3 4 6 9 10 11 12 
3 0 0 1 0 0 2 8 7 
10 0 0 3 0 0 1 5 
1 0 0 3 0 0 1 7 
5 0 0 2 0 0 1 8 
1 0 0 3 0 0 1 13 
7 0 0 1 0 0 2 13 21 
2 0 0 2 0 0 1 13 
3 0 0 3 0 0 1 13 
2 0 0 3 0 0 1 13 
9 0 0 4 0 0 1 13 
0 0 0 0 0 0 1 26 
0 0 0 0 0 0 5 15 16 17 21 22 
6 0 1 0 0 0 2 20 18 
5 0 2 0 0 0 2 23 19 
9 0 2 0 0 0 3 23 19 69 
7 0 2 0 0 0 2 24 23 
4 0 3 0 0 0 1 24 
8 0 3 0 0 0 1 24 
3 0 4 0 0 0 1 23 
7 0 3 0 0 0 1 23 
2 0 2 0 0 0 1 25 
5 0 3 0 0 0 1 25 
0 0 0 0 0 0 1 26 
0 0 0 0 0 0 2 27 39 
0 0 0 0 0 0 4 28 30 31 37 
4 1 0 0 0 0 4 36 35 33 29 
7 2 0 0 0 0 2 34 32 
2 4 0 0 0 0 1 33 
7 2 0 0 0 0 1 32 
3 2 0 0 0 0 1 38 
6 2 0 0 0 0 1 38 
2 2 0 0 0 0 1 38 
8 2 0 0 0 0 1 38 
4 6 0 0 0 0 1 38 
9 2 0 0 0 0 1 38 
0 0 0 0 0 0 1 51 
0 0 0 0 0 0 4 40 41 42 44 
2 0 0 0 1 0 3 48 45 43 
7 0 0 0 3 0 4 49 48 47 45 
5 0 0 0 1 0 3 48 47 45 
10 0 0 0 4 0 3 49 47 46 
1 0 0 0 4 0 2 47 45 
1 0 0 0 3 0 1 46 
6 0 0 0 2 0 1 50 
5 0 0 0 2 0 1 50 
6 0 0 0 3 0 1 50 
10 0 0 0 2 0 1 50 
0 0 0 0 0 0 1 51 
0 0 0 0 0 0 2 52 64 
0 0 0 0 0 0 5 53 54 55 61 62 
9 0 0 0 0 1 3 60 59 56 
1 0 0 0 0 2 2 58 56 
9 0 0 0 0 3 2 58 57 
2 0 0 0 0 2 1 57 
1 0 0 0 0 4 1 63 
4 0 0 0 0 4 1 63 
3 0 0 0 0 1 1 63 
1 0 0 0 0 2 1 63 
4 0 0 0 0 3 1 63 
7 0 0 0 0 3 1 63 
0 0 0 0 0 0 1 76 
0 0 0 0 0 0 5 65 66 67 68 69 
2 0 0 1 0 0 2 74 70 
7 0 0 6 0 0 2 73 70 
3 0 0 3 0 0 2 71 70 
10 0 0 3 0 0 2 71 70 
10 0 0 1 0 0 2 73 72 
6 0 0 3 0 0 1 72 
6 0 0 3 0 0 1 72 
5 0 0 2 0 0 1 75 
1 0 0 2 0 0 1 75 
6 0 0 1 0 0 1 75 
0 0 0 0 0 0 1 76 
0 0 0 0 0 0 2 77 89 
0 0 0 0 0 0 4 78 80 81 82 
5 0 0 1 0 0 4 87 86 84 79 
7 0 0 2 0 0 2 85 83 
3 0 0 2 0 0 2 85 83 
10 0 0 3 0 0 2 84 83 
5 0 0 1 0 0 1 84 
3 0 0 2 0 0 1 88 
10 0 0 5 0 0 1 88 
4 0 0 3 0 0 1 88 
8 0 0 4 0 0 1 88 
1 0 0 2 0 0 1 88 
0 0 0 0 0 0 1 101 
0 0 0 0 0 0 6 90 92 93 94 98 99 
7 0 1 0 0 0 2 97 91 
10 0 4 0 0 0 1 95 
8 0 2 0 0 0 1 96 
9 0 2 0 0 0 1 96 
7 0 4 0 0 0 1 95 
1 0 3 0 0 0 1 100 
7 0 3 0 0 0 1 100 
4 0 3 0 0 0 1 100 
6 0 1 0 0 0 1 100 
5 0 2 0 0 0 1 100 
0 0 0 0 0 0 1 101 
0 0 0 0 0 0 2 102 114 
0 0 0 0 0 0 4 103 104 105 106 
5 0 0 1 0 0 3 112 108 107 
5 0 0 2 0 0 3 112 111 108 
9 0 0 5 0 0 3 112 111 108 
6 0 0 3 0 0 3 112 111 108 
6 0 0 3 0 0 3 111 110 109 
2 0 0 2 0 0 2 110 109 
4 0 0 3 0 0 1 113 
3 0 0 2 0 0 1 113 
5 0 0 1 0 0 1 113 
2 0 0 3 0 0 1 113 
0 0 0 0 0 0 1 126 
0 0 0 0 0 0 3 115 116 120 
7 0 0 0 1 0 3 124 119 117 
1 0 0 0 2 0 2 118 117 
8 0 0 0 1 0 3 123 122 121 
10 0 0 0 4 0 3 124 122 121 
7 0 0 0 2 0 3 123 122 121 
8 0 0 0 5 0 1 121 
5 0 0 0 5 0 1 125 
2 0 0 0 1 0 1 125 
5 0 0 0 1 0 1 125 
6 0 0 0 3 0 1 125 
0 0 0 0 0 0 1 126 
0 0 0 0 0 0 0 
